NAME : zqloutput/eax-hard-simple-rescaleandround/50-6.tsp
TYPE : TSP
DIMENSION : 50
EDGE_WEIGHT_TYPE : EUC_2D
NODE_COORD_SECTION
1 20332 139480
2 225218 176922
3 615747 651444
4 972519 764509
5 710495 308835
6 179974 6072
7 824399 254827
8 214082 287648
9 355013 749048
10 879075 762134
11 99508 954149
12 652823 977365
13 217273 159562
14 139232 231217
15 11772 222423
16 653122 520992
17 20212 784451
18 683731 364534
19 921572 37103
20 443289 280180
21 469553 609785
22 994554 138095
23 149797 891581
24 62920 437477
25 456179 989044
26 630566 109970
27 434911 409279
28 962879 21861
29 875821 237593
30 676098 185832
31 292083 958793
32 679790 215462
33 974307 82224
34 295503 795688
35 600602 522263
36 581307 452995
37 90369 754911
38 244760 843486
39 143559 858326
40 40872 783394
41 814804 183302
42 632160 719451
43 277828 390698
44 927488 267236
45 498641 151287
46 671137 755417
47 651205 912251
48 688852 173164
49 265449 694331
50 938205 511388
EOF
